Cost: 446
0-4-34-46-8-19-14-35-7-0
0-6-33-1-43-42-22-21-2-0
0-45-29-15-20-37-5-48-30-0
0-17-51-3-44-32-39-40-26-0
0-12-10-31-25-18-24-23-16-0
Cost: 446
0-16-23-24-18-25-31-10-12-0
0-45-29-15-20-37-5-48-30-0
0-17-51-3-44-32-39-40-26-0
0-7-35-14-19-8-46-34-4-0
0-6-33-1-43-42-22-21-2-0
Cost: 446
0-4-34-46-8-19-14-35-7-0
0-6-33-1-43-42-22-21-2-0
0-45-29-15-20-37-5-48-30-0
0-17-51-3-44-32-39-40-26-0
0-12-10-31-25-18-24-23-16-0
Cost: 446
0-4-34-46-8-19-14-35-7-0
0-6-33-1-43-42-22-21-2-0
0-45-29-15-20-37-5-48-30-0
0-17-51-3-44-32-39-40-26-0
0-12-10-31-25-18-24-23-16-0
Cost: 446
0-17-51-3-44-32-39-40-26-0
0-6-33-1-43-42-22-21-2-0
0-30-48-5-37-20-15-29-45-0
0-16-23-24-18-25-31-10-12-0
0-7-35-14-19-8-46-34-4-0
Cost: 446
0-16-23-24-18-25-31-10-12-0
0-6-33-1-43-42-22-21-2-0
0-51-3-44-32-39-40-17-26-0
0-45-29-15-20-37-5-48-30-0
0-7-35-14-19-8-46-34-4-0
Cost: 446
0-30-48-5-37-20-15-29-45-0
0-2-21-22-42-43-1-33-6-0
0-12-10-31-25-18-24-23-16-0
0-4-34-46-8-19-14-35-7-0
0-17-51-3-44-32-39-40-26-0
Cost: 446
0-6-33-1-43-42-22-21-2-0
0-4-34-46-8-19-14-35-7-0
0-12-10-31-25-18-24-23-16-0
0-17-51-3-44-32-39-40-26-0
0-45-29-15-20-37-5-48-30-0
Cost: 446
0-6-33-1-43-42-22-21-2-0
0-4-34-46-8-19-14-35-7-0
0-12-10-31-25-18-24-23-16-0
0-17-51-3-44-32-39-40-26-0
0-45-29-15-20-37-5-48-30-0
Cost: 446
0-6-33-1-43-42-22-21-2-0
0-4-34-46-8-19-14-35-7-0
0-16-23-24-18-25-31-10-12-0
0-30-48-5-37-20-15-29-45-0
0-51-3-44-32-39-40-17-26-0
Cost: 446
0-6-33-1-43-42-22-21-2-0
0-4-34-46-8-19-14-35-7-0
0-16-23-24-18-25-31-10-12-0
0-30-48-5-37-20-15-29-45-0
0-51-3-44-32-39-40-17-26-0
Cost: 446
0-4-34-46-8-19-14-35-7-0
0-45-29-15-20-37-5-48-30-0
0-26-17-40-39-32-44-3-51-0
0-2-21-22-42-43-1-33-6-0
0-16-23-24-18-25-31-10-12-0
Cost: 446
0-6-33-1-43-42-22-21-2-0
0-17-51-3-44-32-39-40-26-0
0-7-35-14-19-8-46-34-4-0
0-45-29-15-20-37-5-48-30-0
0-12-10-31-25-18-24-23-16-0
Cost: 446
0-17-51-3-44-32-39-40-26-0
0-6-33-1-43-42-22-21-2-0
0-30-48-5-37-20-15-29-45-0
0-16-23-24-18-25-31-10-12-0
0-7-35-14-19-8-46-34-4-0
Cost: 446
0-16-23-24-18-25-31-10-12-0
0-7-35-14-19-8-46-34-4-0
0-30-48-5-37-20-15-29-45-0
0-26-17-40-39-32-44-3-51-0
0-6-33-1-43-42-22-21-2-0
Cost: 446
0-16-23-24-18-25-31-10-12-0
0-7-35-14-19-8-46-34-4-0
0-30-48-5-37-20-15-29-45-0
0-26-17-40-39-32-44-3-51-0
0-6-33-1-43-42-22-21-2-0
Cost: 446
0-26-40-39-32-44-3-51-17-0
0-7-35-14-19-8-46-34-4-0
0-2-21-22-42-43-1-33-6-0
0-12-10-31-25-18-24-23-16-0
0-45-29-15-20-37-5-48-30-0
Cost: 446
0-4-34-46-8-19-14-35-7-0
0-26-17-40-39-32-44-3-51-0
0-12-10-31-25-18-24-23-16-0
0-45-29-15-20-37-5-48-30-0
0-6-33-1-43-42-22-21-2-0
Cost: 446
0-6-33-1-43-42-22-21-2-0
0-7-35-14-19-8-46-34-4-0
0-30-48-5-37-20-15-29-45-0
0-26-17-40-39-32-44-3-51-0
0-16-23-24-18-25-31-10-12-0
Cost: 446
0-6-33-1-43-42-22-21-2-0
0-7-35-14-19-8-46-34-4-0
0-30-48-5-37-20-15-29-45-0
0-26-17-40-39-32-44-3-51-0
0-16-23-24-18-25-31-10-12-0
Cost: 446
0-17-51-3-44-32-39-40-26-0
0-7-35-14-19-8-46-34-4-0
0-6-33-1-43-42-22-21-2-0
0-16-23-24-18-25-31-10-12-0
0-45-29-15-20-37-5-48-30-0
Cost: 446
0-17-51-3-44-32-39-40-26-0
0-7-35-14-19-8-46-34-4-0
0-6-33-1-43-42-22-21-2-0
0-16-23-24-18-25-31-10-12-0
0-45-29-15-20-37-5-48-30-0
Cost: 446
0-7-35-14-19-8-46-34-4-0
0-26-40-39-32-44-3-51-17-0
0-30-48-5-37-20-15-29-45-0
0-2-21-22-42-43-1-33-6-0
0-12-10-31-25-18-24-23-16-0
Cost: 446
0-17-51-3-44-32-39-40-26-0
0-7-35-14-19-8-46-34-4-0
0-6-33-1-43-42-22-21-2-0
0-16-23-24-18-25-31-10-12-0
0-45-29-15-20-37-5-48-30-0
Cost: 446
0-4-34-46-8-19-14-35-7-0
0-26-17-40-39-32-44-3-51-0
0-12-10-31-25-18-24-23-16-0
0-45-29-15-20-37-5-48-30-0
0-6-33-1-43-42-22-21-2-0
Cost: 446
0-6-33-1-43-42-22-21-2-0
0-7-35-14-19-8-46-34-4-0
0-30-48-5-37-20-15-29-45-0
0-26-17-40-39-32-44-3-51-0
0-16-23-24-18-25-31-10-12-0
Cost: 446
0-12-10-31-25-18-24-23-16-0
0-4-34-46-8-19-14-35-7-0
0-2-21-22-42-43-1-33-6-0
0-30-48-5-37-20-15-29-45-0
0-17-51-3-44-32-39-40-26-0
Cost: 0
Cost: 451
0-7-35-14-19-8-46-34-4-0
0-26-10-31-25-39-40-17-0
0-21-47-5-37-20-15-29-45-0
0-6-33-1-43-42-22-2-30-0
0-12-3-44-32-18-24-23-16-51-0
Cost: 446
0-26-40-39-32-44-3-51-17-0
0-6-33-1-43-42-22-21-2-0
0-7-35-14-19-8-46-34-4-0
0-45-29-15-20-37-5-48-30-0
0-12-10-31-25-18-24-23-16-0
Cost: 446
0-51-3-44-32-39-40-17-26-0
0-45-29-15-20-37-5-48-30-0
0-2-21-22-42-43-1-33-6-0
0-7-35-14-19-8-46-34-4-0
0-16-23-24-18-25-31-10-12-0
